p edge 40 76 5
v 8 5 10 22 26 27 32 33 35
v 8 1 2 8 17 28 29 37 40
v 7 6 12 15 21 30 31 38
v 8 3 7 9 16 18 23 34 36
v 9 4 11 13 14 19 20 24 25 39
e 1 27
e 1 32
e 2 6
e 2 11
e 2 28
e 2 36
e 2 40
e 3 10
e 3 18
e 3 26
e 3 31
e 3 38
e 3 40
e 4 9
e 4 14
e 4 30
e 4 36
e 5 11
e 5 17
e 5 28
e 5 29
e 5 34
e 6 7
e 6 23
e 6 36
e 6 38
e 6 39
e 7 9
e 7 24
e 8 13
e 8 17
e 8 20
e 8 22
e 8 28
e 8 34
e 9 24
e 10 14
e 11 17
e 11 22
e 11 25
e 11 26
e 11 29
e 11 38
e 11 40
e 12 35
e 12 38
e 13 16
e 14 24
e 14 29
e 14 38
e 15 22
e 15 25
e 15 28
e 15 38
e 16 26
e 16 29
e 16 36
e 16 39
e 17 18
e 17 31
e 17 40
e 19 28
e 19 32
e 19 39
e 20 32
e 21 24
e 22 26
e 22 34
e 23 34
e 27 31
e 27 39
e 28 38
e 29 39
e 31 37
e 31 39
e 35 38
